Route #1: 38 47 26 48 96 64 34
Route #2: 31 46 35
Route #3: 24 95 73 53 33 32
Route #4: 23 61 100
Route #5: 93 75
Route #6: 28 42 78 65 25
Route #7: 52 91 50
Route #8: 20 41 22 15
Route #9: 7 2 45 43 29 36 72 57
Route #10: 59 60 82
Route #11: 71 62 99 98 89
Route #12: 30 85 11 79
Route #13: 8 17
Route #14: 83 51 81
Route #15: 18 10 39
Route #16: 80 94 56 21
Route #17: 1 70 54
Route #18: 40 88 67 44
Route #19: 58 12 5
Route #20: 19 97 27
Route #21: 14 49 6 37 87
Route #22: 74 13 4
Route #23: 63 77 3
Route #24: 92 9 86
Route #25: 66 84 90 68
Route #26: 76 55 16 69
Cost 27591.0000
Time 16.0009